set VV := 0 1 2 3 4 5 6 7 8 9 10 11 12 13 14 15 ;
set VS := 0 1 2 3 4 5 6 7 8 9 10 11 12 13 14 15 16 17 18 19 20 21 22 23 24 25 26 27 28 29 30 31 32 33 34 35 ;
param cv := 
0 17
1 12
2 24
3 13
4 13
5 11
6 23
7 16
8 23
9 24
10 17
11 19
12 25
13 19
14 10
15 19
;
param cs := 
0 21
1 31
2 40
3 22
4 20
5 37
6 22
7 27
8 34
9 20
10 26
11 29
12 35
13 28
14 28
15 35
16 33
17 20
18 29
19 35
20 34
21 20
22 35
23 26
24 35
25 32
26 29
27 21
28 30
29 35
30 38
31 20
32 30
33 28
34 22
35 28
;
param bv:	 0 1 2 3 4 5 6 7 8 9 10 11 12 13 14 15 := 
		0 0 0 0 0 0 0 0 19 22 0 0 0 0 0 0 0 
		1 0 0 0 24 11 17 0 18 0 18 0 0 0 0 0 0 
		2 0 0 0 0 0 0 21 0 0 0 19 0 0 0 0 0 
		3 0 0 0 0 0 0 0 0 0 0 0 0 0 0 0 0 
		4 0 0 0 0 0 0 0 0 0 0 0 0 0 0 0 23 
		5 0 0 0 0 0 0 0 0 0 0 0 0 0 0 0 0 
		6 0 0 0 0 0 0 0 0 0 0 0 0 0 0 0 0 
		7 0 0 0 0 0 0 0 0 0 0 16 0 0 0 20 0 
		8 0 0 0 0 0 0 0 0 0 0 0 16 0 0 0 0 
		9 0 0 0 0 0 0 0 0 0 0 0 0 0 19 0 0 
		10 0 0 0 0 0 0 0 0 0 0 0 0 0 0 0 0 
		11 0 0 0 0 0 0 0 0 0 0 0 0 0 0 12 0 
		12 0 0 0 0 0 0 0 0 0 0 0 0 0 10 10 0 
		13 0 0 0 0 0 0 0 0 0 0 0 0 0 0 0 0 
		14 0 0 0 0 0 0 0 0 0 0 0 0 0 0 0 0 
		15 0 0 0 0 0 0 0 0 0 0 0 0 0 0 0 0 
;
param bs:	 0 1 2 3 4 5 6 7 8 9 10 11 12 13 14 15 16 17 18 19 20 21 22 23 24 25 26 27 28 29 30 31 32 33 34 35 := 
		0 0 33 0 27 0 35 20 0 32 0 0 0 0 0 25 21 0 0 0 0 0 0 0 0 0 0 0 0 0 36 32 0 0 0 0 0 
		1 33 0 26 32 0 0 0 0 0 24 0 0 0 0 0 0 0 0 31 0 25 0 0 0 0 0 0 0 0 0 0 0 0 0 0 0 
		2 0 26 0 0 0 0 0 0 0 0 0 0 0 0 0 0 0 0 0 0 0 0 0 0 27 0 0 0 0 0 0 0 0 0 0 0 
		3 27 32 0 0 0 0 0 0 0 0 0 0 0 0 0 30 0 0 0 0 0 21 0 0 0 0 0 0 0 0 0 0 0 35 0 0 
		4 0 0 0 0 0 0 22 0 0 0 0 0 0 0 0 39 36 0 0 0 0 28 0 0 0 0 0 0 0 0 0 33 0 0 0 0 
		5 35 0 0 0 0 0 33 0 0 0 32 0 0 0 0 33 0 29 0 0 0 0 0 0 0 0 0 0 0 0 0 0 23 0 0 0 
		6 20 0 0 0 22 33 0 26 0 0 0 0 0 0 0 23 0 0 0 0 0 0 0 0 0 0 0 0 0 0 24 0 0 0 0 0 
		7 0 0 0 0 0 0 26 0 0 26 26 0 0 0 0 0 0 0 32 24 0 0 0 0 0 0 0 0 0 0 0 0 0 22 0 26 
		8 32 0 0 0 0 0 0 0 0 34 0 26 0 0 0 0 0 0 0 38 0 0 0 22 0 0 0 0 0 0 0 0 0 33 0 0 
		9 0 24 0 0 0 0 0 26 34 0 0 20 0 0 0 26 0 0 0 0 31 0 0 0 0 22 0 0 21 0 0 0 0 0 0 29 
		10 0 0 0 0 0 32 0 26 0 0 0 0 0 36 0 0 0 0 21 0 0 0 0 35 0 20 0 0 0 0 0 0 0 0 0 0 
		11 0 0 0 0 0 0 0 0 26 20 0 0 0 0 40 0 31 21 0 0 0 0 0 0 20 22 28 0 0 0 38 0 37 28 0 0 
		12 0 0 0 0 0 0 0 0 0 0 0 0 0 0 0 30 0 0 0 0 0 0 0 0 0 0 0 0 0 22 0 0 0 0 0 0 
		13 0 0 0 0 0 0 0 0 0 0 36 0 0 0 36 0 24 0 0 0 0 0 0 0 40 0 0 0 38 0 0 0 22 0 0 0 
		14 25 0 0 0 0 0 0 0 0 0 0 40 0 36 0 0 0 0 0 0 0 0 0 32 0 0 0 0 37 0 0 0 0 0 0 0 
		15 21 0 0 30 39 33 23 0 0 26 0 0 30 0 0 0 0 0 0 0 0 0 0 0 0 0 0 0 0 0 0 0 0 0 0 0 
		16 0 0 0 0 36 0 0 0 0 0 0 31 0 24 0 0 0 0 32 0 0 0 0 0 39 0 0 0 0 0 0 0 0 0 0 0 
		17 0 0 0 0 0 29 0 0 0 0 0 21 0 0 0 0 0 0 0 0 0 0 0 0 0 0 0 37 0 0 0 0 0 0 0 0 
		18 0 31 0 0 0 0 0 32 0 0 21 0 0 0 0 0 32 0 0 0 28 0 0 0 0 0 0 0 0 0 0 0 0 0 0 0 
		19 0 0 0 0 0 0 0 24 38 0 0 0 0 0 0 0 0 0 0 0 0 0 0 25 33 0 0 0 0 0 0 0 0 0 0 0 
		20 0 25 0 0 0 0 0 0 0 31 0 0 0 0 0 0 0 0 28 0 0 0 0 0 0 0 0 0 0 0 31 0 0 0 0 0 
		21 0 0 0 21 28 0 0 0 0 0 0 0 0 0 0 0 0 0 0 0 0 0 0 0 0 0 0 0 0 34 0 0 0 39 0 0 
		22 0 0 0 0 0 0 0 0 0 0 0 0 0 0 0 0 0 0 0 0 0 0 0 0 0 0 36 0 0 0 0 0 0 0 0 0 
		23 0 0 0 0 0 0 0 0 22 0 35 0 0 0 32 0 0 0 0 25 0 0 0 0 0 0 0 0 0 0 27 0 0 39 26 0 
		24 0 0 27 0 0 0 0 0 0 0 0 20 0 40 0 0 39 0 0 33 0 0 0 0 0 0 0 0 0 0 0 22 0 0 0 0 
		25 0 0 0 0 0 0 0 0 0 22 20 22 0 0 0 0 0 0 0 0 0 0 0 0 0 0 0 0 0 0 0 0 0 0 0 0 
		26 0 0 0 0 0 0 0 0 0 0 0 28 0 0 0 0 0 0 0 0 0 0 36 0 0 0 0 0 0 0 23 0 0 0 0 21 
		27 0 0 0 0 0 0 0 0 0 0 0 0 0 0 0 0 0 37 0 0 0 0 0 0 0 0 0 0 0 0 0 0 0 0 0 0 
		28 0 0 0 0 0 0 0 0 0 21 0 0 0 38 37 0 0 0 0 0 0 0 0 0 0 0 0 0 0 0 0 0 0 26 0 0 
		29 36 0 0 0 0 0 0 0 0 0 0 0 22 0 0 0 0 0 0 0 0 34 0 0 0 0 0 0 0 0 0 0 0 0 0 0 
		30 32 0 0 0 0 0 24 0 0 0 0 38 0 0 0 0 0 0 0 0 31 0 0 27 0 0 23 0 0 0 0 0 0 0 0 0 
		31 0 0 0 0 33 0 0 0 0 0 0 0 0 0 0 0 0 0 0 0 0 0 0 0 22 0 0 0 0 0 0 0 0 36 0 0 
		32 0 0 0 0 0 23 0 0 0 0 0 37 0 22 0 0 0 0 0 0 0 0 0 0 0 0 0 0 0 0 0 0 0 0 29 0 
		33 0 0 0 35 0 0 0 22 33 0 0 28 0 0 0 0 0 0 0 0 0 39 0 39 0 0 0 0 26 0 0 36 0 0 0 0 
		34 0 0 0 0 0 0 0 0 0 0 0 0 0 0 0 0 0 0 0 0 0 0 0 26 0 0 0 0 0 0 0 0 29 0 0 0 
		35 0 0 0 0 0 0 0 26 0 29 0 0 0 0 0 0 0 0 0 0 0 0 0 0 0 0 21 0 0 0 0 0 0 0 0 0 
;
